CMD:
./solvers/bin/cadical --plain --no-reduce -t 1600 ./data/cnfs//cmugigamax/cmugigamax.22.cnf

c --- [ banner ] -------------------------------------------------------------
c 
c CaDiCaL SAT Solver
c Copyright (c) 2016-2024
c A. Biere, M. Fleury, N. Froleyks, K. Fazekas, F. Pollitt, T. Faller
c JKU Linz, University of Freiburg, TU Wien
c 
c Version 2.1.3 5296d3d2a9bf48c154ab2acb5e44625776d821bf
c g++ (Gentoo 12.3.1_p20230526 p2) 12.3.1 20230526 -Wall -Wextra -O3 -DNDEBUG
c Sat Aug 9 07:26:21 PDT 2025 Linux cedar2.int.cedar.computecanada.ca 5.14.0-362.24.2.el9_3.x86_64 x86_64
c 
c --- [ limit ] --------------------------------------------------------------
c 
c setting time limit to 1600 seconds real time (due to '-t 1600')
c 
c --- [ parsing input ] ------------------------------------------------------
c 
c reading DIMACS file from './data/cnfs//cmugigamax/cmugigamax.22.cnf'
c opening file to read './data/cnfs//cmugigamax/cmugigamax.22.cnf'
c found 'p cnf 14991 42533' header
c parsed 42533 clauses in 0.01 seconds process time
c 
c --- [ options ] ------------------------------------------------------------
c 
c   --compact=false                (different from default 'true')
c   --decompose=false              (different from default 'true')
c   --deduplicate=false            (different from default 'true')
c   --elim=false                   (different from default 'true')
c   --probe=false                  (different from default 'true')
c   --reduce=false                 (different from default 'true')
c   --subsume=false                (different from default 'true')
c   --ternary=false                (different from default 'true')
c   --transred=false               (different from default 'true')
c   --vivify=false                 (different from default 'true')
c 
c --- [ solving ] ------------------------------------------------------------
c 
c time measured in process time since initialization
c 
c  seconds  reductions  redundant  irredundant
c         MB    restarts       trail      variables
c          level   conflicts       glue        remaining
c 
c *  0.01 10  0 0   0    0    0  0% 0 41399 13134 88%
c {  0.01 11  0 0   0    0    0  0% 0 41399 13134 88%
c i  0.01 11 22 0   0   11    7 15% 1 41399 13133 88%
c i  0.01 11 23 0   0   16   11 16% 1 41399 13128 88%
c i  0.01 11 23 0   0   17   11 16% 1 41399 13127 88%
c i  0.01 11 24 0   0   23   15 16% 1 41399 13123 88%
c i  0.01 11 27 0   0   29   19 17% 1 41399 13122 88%
c i  0.01 11 28 0   0   33   22 17% 1 41399 13121 88%
c i  0.01 11 28 0   0   34   22 17% 1 41399 13119 88%
c i  0.01 11 28 0   0   49   29 18% 1 41399 13058 87%
c i  0.01 11 28 0   0   50   29 18% 1 41399 13044 87%
c i  0.01 11 25 0   1   58   35 18% 1 41399 13040 87%
c i  0.01 11 23 0   4   71   46 18% 1 41399 13035 87%
c i  0.01 11 23 0   7   78   50 18% 1 41399 13030 87%
c i  0.01 11 21 0  10   87   58 18% 1 41399 13003 87%
c i  0.01 11 20 0  11   92   62 18% 1 41399 13000 87%
c i  0.01 11 20 0  11  105   71 18% 1 41399 12998 87%
c i  0.01 11 21 0  11  114   78 18% 1 41399 12995 87%
c i  0.01 11 21 0  11  121   80 18% 1 41399 12992 87%
c i  0.01 11 21 0  11  122   80 18% 1 41399 12989 87%
c 
c  seconds  reductions  redundant  irredundant
c         MB    restarts       trail      variables
c          level   conflicts       glue        remaining
c 
c i  0.01 11 21 0  11  129   86 19% 1 41399 12985 87%
c i  0.01 11 21 0  11  139   94 19% 1 41399 12983 87%
c i  0.01 11 22 0  11  143   97 19% 1 41399 12981 87%
c i  0.01 11 23 0  11  150  101 20% 1 41399 12980 87%
c i  0.01 11 26 0  14  175  124 20% 2 41399 12977 87%
c i  0.01 11 23 0  19  196  143 20% 2 41399 12974 87%
c i  0.01 11 23 0  20  200  145 20% 2 41399 12575 84%
c i  0.01 11 23 0  21  201  145 20% 2 41399 12553 84%
c i  0.01 11 22 0  22  211  154 20% 2 41399 12552 84%
c i  0.01 11 21 0  23  221  162 20% 2 41399 12551 84%
c i  0.01 11 20 0  25  231  167 20% 2 41399 12527 84%
c i  0.01 11 20 0  25  232  167 20% 2 41399 12523 84%
c i  0.01 11 19 0  26  250  180 20% 2 41399 12522 84%
c i  0.01 11 19 0  27  277  202 20% 2 41399 12509 83%
c i  0.01 11 19 0  27  278  202 20% 2 41399 12506 83%
c i  0.01 11 19 0  27  286  207 20% 2 41399 12505 83%
c i  0.01 11 20 0  27  297  215 21% 2 41399 12503 83%
c i  0.01 11 21 0  27  304  219 21% 2 41399 12502 83%
c i  0.01 11 24 0  27  336  245 22% 2 41399 12500 83%
c i  0.01 11 25 0  27  343  249 22% 2 41399 12499 83%
c 
c  seconds  reductions  redundant  irredundant
c         MB    restarts       trail      variables
c          level   conflicts       glue        remaining
c 
c i  0.01 11 28 0  27  375  275 23% 2 41399 12497 83%
c i  0.01 11 29 0  27  382  279 24% 2 41399 12496 83%
c i  0.01 11 32 0  27  414  305 25% 2 41399 12494 83%
c i  0.01 11 33 0  27  421  309 25% 2 41399 12493 83%
... skipped 63 lines ...
c i  0.03 11 56 0  46 1094  825 42% 1 41399 12297 82%
c i  0.03 11 60 0  46 1099  827 45% 1 41399 12286 82%
c i  0.03 11 60 0  46 1100  827 45% 1 41399 12264 82%
c 
c  seconds  reductions  redundant  irredundant
c         MB    restarts       trail      variables
c          level   conflicts       glue        remaining
c 
c i  0.03 11 63 0  46 1104  829 47% 1 41399 12261 82%
c i  0.03 11 64 0  46 1107  830 48% 1 41399 12244 82%
c i  0.03 11 72 0  46 1120  838 51% 1 41399 12241 82%
c i  0.03 11 73 0  46 1123  840 52% 1 41399 12235 82%
c i  0.03 11 76 0  46 1131  846 53% 1 41399 12232 82%
c i  0.03 11 79 0  46 1139  852 54% 1 41399 12212 81%
c i  0.03 11 85 0  46 1168  876 57% 1 41399 12210 81%
c i  0.03 11 88 0  46 1191  891 59% 1 41399 12206 81%
c i  0.03 11 89 0  46 1205  903 59% 2 41399 12204 81%
c i  0.03 11 90 0  46 1218  910 60% 2 41399 12200 81%
c i  0.03 11 90 0  46 1229  919 60% 2 41399 12197 81%
c i  0.03 11 91 0  46 1256  940 60% 2 41399 12194 81%
c i  0.03 11 90 0  46 1294  970 60% 2 41399 12191 81%
c i  0.03 11 90 0  46 1298  972 60% 2 41399 12188 81%
c i  0.04 11 89 0  46 1330  996 59% 2 41399 12185 81%
c i  0.04 11 87 0  46 1351 1011 58% 2 41399 12182 81%
c i  0.04 11 87 0  46 1364 1020 58% 2 41399 12179 81%
c i  0.04 11 84 0  46 1404 1049 56% 2 41399 12176 81%
c i  0.04 11 84 0  46 1405 1049 56% 2 41399 12173 81%
c i  0.04 11 83 0  46 1424 1065 56% 2 41399 12153 81%
c 
c  seconds  reductions  redundant  irredundant
c         MB    restarts       trail      variables
c          level   conflicts       glue        remaining
c 
c i  0.04 11 83 0  46 1426 1066 55% 2 41399 12147 81%
c i  0.04 11 82 0  46 1435 1073 55% 2 41399 12143 81%
c i  0.04 11 80 0  46 1456 1089 54% 2 41399 12140 81%
c i  0.04 11 80 0  46 1467 1095 54% 2 41399 12117 81%
c i  0.04 11 79 0  46 1472 1097 54% 2 41399 12111 81%
c i  0.04 11 76 0  46 1509 1122 52% 2 41399 12109 81%
c i  0.04 11 76 0  46 1511 1123 52% 2 41399 12106 81%
c i  0.04 11 75 0  46 1512 1123 52% 2 41399 12104 81%
c i  0.04 11 75 0  46 1514 1124 52% 2 41399 12101 81%
c i  0.04 11 75 0  46 1516 1125 52% 2 41399 12005 80%
c i  0.04 11 74 0  46 1524 1130 51% 2 41399 11934 80%
c i  0.04 11 73 0  46 1529 1131 51% 2 41399 11818 79%
c i  0.04 11 73 0  46 1530 1131 51% 2 41399 11812 79%
c ]  0.04 11 73 0  46 1532 1131 51% 2 41399 11770 79%
c 0  0.04 11 73 0  46 1532 1131 51% 2 41399 11770 79%
c 
c --- [ result ] -------------------------------------------------------------
c 
s UNSATISFIABLE
c 
c --- [ run-time profiling ] -------------------------------------------------
c 
c process time taken by individual solving procedures
c (percentage relative to process time for solving)
c 
c         0.03   99.74% search
c         0.02   59.23% unstable
c         0.01   39.80% stable
c         0.01   23.12% parse
c         0.00    0.65% lucky
c         0.00    0.00% simplify
c   =================================
c         0.03   80.45% solve
c 
c last line shows process time for solving
c (percentage relative to total process time)
c 
c --- [ statistics ] ---------------------------------------------------------
c 
c chronological:               806        52.61 %  of conflicts
c conflicts:                  1532     48551.69    per second
c decisions:                  5583    176934.78    per second
c fixed:                      3221        21.49 %  of all variables
c learned:                    1354        88.38 %  per conflict
c learned_lits:               6664       100.00 %  learned literals
c minimized:                     0         0.00 %  learned literals
c shrunken:                    975        14.63 %  learned literals
c minishrunken:                494         7.41 %  learned literals
c otfs:                        117         7.64 %  of conflict
c propagations:             409022        12.96 M  per second
c rephased:                      1      1532.00    interval
c restarts:                     46        33.30    interval
c stabilizing:                   1        34.66 %  of conflicts
c subsumed:                     90         0.21 %  of all clauses
c strengthened:                117         0.27 %  of all clauses
c 
c seconds are measured in process time for solving
c 
c --- [ resources ] ----------------------------------------------------------
c 
c total process time since initialization:         0.04    seconds
c total real time since initialization:            0.04    seconds
c maximum resident set size of process:           30.84    MB
c 
c --- [ shutting down ] ------------------------------------------------------
c 
c exit 20
